Maximize
  D
Subject To
 Facility_Constraint: y1 + y2 + y3 + y4 = 2
 Inter-Fac_Dist_Constraint_1: - 49 y1 - 49 y2 - D >= -116
 Inter-Fac_Dist_Constraint_2: - 49 y1 - 49 y3 - D >= -130
 Inter-Fac_Dist_Constraint_3: - 49 y1 - 49 y4 - D >= -113
 Inter-Fac_Dist_Constraint_4: - 49 y2 - 49 y3 - D >= -133
 Inter-Fac_Dist_Constraint_5: - 49 y2 - 49 y4 - D >= -133
 Inter-Fac_Dist_Constraint_6: - 49 y3 - 49 y4 - D >= -117
Bounds
Binaries
 y1 y2 y3 y4
End
